4 
5  16 38 54 
6  08 17 22 27 32 38 42 48 52 57 
7  02 07 12 17 23 27 33 37 42 47 52 57 
8  02 07 12 17 22 27 32 37 42 47 52 57 
9  02 07 12 17 25 32 40 47 55 
10  03 11 18 26 35 42 50 57 
11  05 12 20 27 35 42 50 57 
12  05 12 20 27 35 42 50 57 
13  05 12 20 27 35 42 50 57 
14  05 12 20 27 35 42 51 58 
15  03 08 13 18 23 27 33 38 42 48 53 57 
16  03 08 12 18 23 27 33 38 42 48 53 57 
17  03 08 12 18 23 27 33 38 42 48 53 57 
18  03 08 12 18 23 27 33 38 42 48 53 57 
19  03 08 17 22 29 36 44 52 59 
20  08 17 26 34 41 48 56 
21  04 11 19 26 34 41 49 56 
22  08 23 38 53 
23  08 23 38 
0 
